Minimize
 obj: 0 X_0_1
Subject To
 out_0:
  + 1 X_0_1 + 1 X_0_2 + 1 X_0_3 + 1 X_0_4
  = 1
 in_0:
  + 1 X_1_0 + 1 X_2_0 + 1 X_3_0 + 1 X_4_0
  = 1
 out_1:
  + 1 X_1_0 + 1 X_1_2 + 1 X_1_3 + 1 X_1_4
  = 1
 in_1:
  + 1 X_0_1 + 1 X_2_1 + 1 X_3_1 + 1 X_4_1
  = 1
 out_2:
  + 1 X_2_0 + 1 X_2_1 + 1 X_2_3 + 1 X_2_4
  = 1
 in_2:
  + 1 X_0_2 + 1 X_1_2 + 1 X_3_2 + 1 X_4_2
  = 1
 out_3:
  + 1 X_3_0 + 1 X_3_1 + 1 X_3_2 + 1 X_3_4
  = 1
 in_3:
  + 1 X_0_3 + 1 X_1_3 + 1 X_2_3 + 1 X_4_3
  = 1
 out_4:
  + 1 X_4_0 + 1 X_4_1 + 1 X_4_2 + 1 X_4_3
  = 1
 in_4:
  + 1 X_0_4 + 1 X_1_4 + 1 X_2_4 + 1 X_3_4
  = 1
 mtz_1_2:
  + 1 U1 - 1 U2 + 4 X_1_2
  <= 3
 mtz_1_3:
  + 1 U1 - 1 U3 + 4 X_1_3
  <= 3
 mtz_1_4:
  + 1 U1 - 1 U4 + 4 X_1_4
  <= 3
 mtz_2_1:
  + 1 U2 - 1 U1 + 4 X_2_1
  <= 3
 mtz_2_3:
  + 1 U2 - 1 U3 + 4 X_2_3
  <= 3
 mtz_2_4:
  + 1 U2 - 1 U4 + 4 X_2_4
  <= 3
 mtz_3_1:
  + 1 U3 - 1 U1 + 4 X_3_1
  <= 3
 mtz_3_2:
  + 1 U3 - 1 U2 + 4 X_3_2
  <= 3
 mtz_3_4:
  + 1 U3 - 1 U4 + 4 X_3_4
  <= 3
 mtz_4_1:
  + 1 U4 - 1 U1 + 4 X_4_1
  <= 3
 mtz_4_2:
  + 1 U4 - 1 U2 + 4 X_4_2
  <= 3
 mtz_4_3:
  + 1 U4 - 1 U3 + 4 X_4_3
  <= 3
 obj1:
  + 494 X_0_1 + 630 X_0_2 + 849 X_0_3 + 389 X_0_4 + 494 X_1_0 + 137 X_1_2 + 463 X_1_3 + 120 X_1_4
  + 630 X_2_0 + 137 X_2_1 + 421 X_2_3 + 245 X_2_4 + 849 X_3_0 + 463 X_3_1 + 421 X_3_2 + 572 X_3_4
  + 389 X_4_0 + 120 X_4_1 + 245 X_4_2 + 572 X_4_3
  <= 1
 obj2:
  + 302 X_0_1 + 755 X_0_2 + 231 X_0_3 + 547 X_0_4 + 302 X_1_0 + 634 X_1_2 + 75 X_1_3 + 250 X_1_4
  + 755 X_2_0 + 634 X_2_1 + 630 X_2_3 + 700 X_2_4 + 231 X_3_0 + 75 X_3_1 + 630 X_3_2 + 326 X_3_4
  + 547 X_4_0 + 250 X_4_1 + 700 X_4_2 + 326 X_4_3
  <= 2
 obj3:
  + 386 X_0_1 + 123 X_0_2 + 203 X_0_3 + 399 X_0_4 + 386 X_1_0 + 369 X_1_2 + 527 X_1_3 + 744 X_1_4
  + 123 X_2_0 + 369 X_2_1 + 157 X_2_3 + 504 X_2_4 + 203 X_3_0 + 527 X_3_1 + 157 X_3_2 + 458 X_3_4
  + 399 X_4_0 + 744 X_4_1 + 504 X_4_2 + 458 X_4_3
  <= 3
 obj4:
  + 435 X_0_1 + 722 X_0_2 + 333 X_0_3 + 687 X_0_4 + 435 X_1_0 + 735 X_1_2 + 308 X_1_3 + 835 X_1_4
  + 722 X_2_0 + 735 X_2_1 + 461 X_2_3 + 239 X_2_4 + 333 X_3_0 + 308 X_3_1 + 461 X_3_2 + 529 X_3_4
  + 687 X_4_0 + 835 X_4_1 + 239 X_4_2 + 529 X_4_3
  <= 4
 obj5:
  + 393 X_0_1 + 691 X_0_2 + 165 X_0_3 + 227 X_0_4 + 393 X_1_0 + 298 X_1_2 + 491 X_1_3 + 600 X_1_4
  + 691 X_2_0 + 298 X_2_1 + 773 X_2_3 + 889 X_2_4 + 165 X_3_0 + 491 X_3_1 + 773 X_3_2 + 124 X_3_4
  + 227 X_4_0 + 600 X_4_1 + 889 X_4_2 + 124 X_4_3
  <= 5
 obj6:
  + 501 X_0_1 + 141 X_0_2 + 650 X_0_3 + 578 X_0_4 + 501 X_1_0 + 638 X_1_2 + 278 X_1_3 + 219 X_1_4
  + 141 X_2_0 + 638 X_2_1 + 791 X_2_3 + 720 X_2_4 + 650 X_3_0 + 278 X_3_1 + 791 X_3_2 + 74 X_3_4
  + 578 X_4_0 + 219 X_4_1 + 720 X_4_2 + 74 X_4_3
  <= 6
 obj7:
  + 388 X_0_1 + 684 X_0_2 + 455 X_0_3 + 312 X_0_4 + 388 X_1_0 + 643 X_1_2 + 618 X_1_3 + 661 X_1_4
  + 684 X_2_0 + 643 X_2_1 + 343 X_2_3 + 970 X_2_4 + 455 X_3_0 + 618 X_3_1 + 343 X_3_2 + 684 X_3_4
  + 312 X_4_0 + 661 X_4_1 + 970 X_4_2 + 684 X_4_3
  <= 7
Bounds
 1 <= U1 <= 4
 1 <= U2 <= 4
 1 <= U3 <= 4
 1 <= U4 <= 4
Binary
 X_0_1
 X_0_2
 X_0_3
 X_0_4
 X_1_0
 X_1_2
 X_1_3
 X_1_4
 X_2_0
 X_2_1
 X_2_3
 X_2_4
 X_3_0
 X_3_1
 X_3_2
 X_3_4
 X_4_0
 X_4_1
 X_4_2
 X_4_3
End
